c ---- [ banner ] ------------------------------------------------------------
c
c Kissat SAT Solver
c 
c Copyright (c) 2021-2024 Armin Biere University of Freiburg
c Copyright (c) 2019-2021 Armin Biere Johannes Kepler University Linz
c 
c Version 4.0.1 43f02cf3e992cb44653b35e5cb26f93281552ae0
c gcc (Ubuntu 13.2.0-23ubuntu4) 13.2.0 -W -Wall -O3 -DNDEBUG
c Thu Sep 12 12:27:46 CEST 2024 Linux abryzen9 6.8.0-41-generic x86_64
c
c ---- [ parsing ] -----------------------------------------------------------
c
c opened and reading DIMACS file:
c
c   /data/artifact/AMulet2.0_artifact/exp4/cnf_compress2rs_64/64_64_U_SP_CWT_RC_GenMul_compress2rs.cnf
c
c parsed 'p cnf 39117 151902' header
c closing input after reading 2970507 bytes (3 MB)
c finished parsing after 0.04 seconds
c
c ---- [ options ] -----------------------------------------------------------
c
c --stable=0                       (different from default '1')
c
c ---- [ solving ] -----------------------------------------------------------
c
c  seconds switched rate     size/glue tier1  binary           remaining
c         MB reductions conflicts size  tier2     irredundant
c          level restarts redundant glue  trail           variables
c
c *  0.04 12 0 0 0  0 0   0   0 0.0 0 0 0 0 0% 38895 113005 39114 100%
c (  0.06 13 0 0 0  0 0   0   0 0.0 0 0 0 0 0% 38895 113005 39114 100%
c .  0.07 13 0 0 0  0 0   0   0 0.0 0 0 0 0 0% 38891 113005 39114 100%
c c  0.19 24 0 0 0  0 0   0   0 0.0 0 0 0 0 0% 47749 97194 34683 89%
c d  0.20 24 0 0 0  0 0   0   0 0.0 0 0 0 0 0% 38887 97194 34683 89%
c =  0.27 24 0 0 0  0 0   0   0 0.0 0 0 0 0 0% 37823 97194 34580 88%
c d  0.28 24 0 0 0  0 0   0   0 0.0 0 0 0 0 0% 37617 97194 34580 88%
c f  0.40 22 0 0 0  0 0   0   0 0.0 0 0 0 0 0% 39089 94708 35567 91%
c e  0.57 30 0 0 0  0 0   0   0 0.0 0 0 0 0 0% 22989 103107 26785 68%
c )  0.57 30 0 0 0  0 0   0   0 0.0 0 0 0 0 0% 22989 103107 26785 68%
c {  0.60 30 0 0 0  0 0   0   0 0.0 0 0 2 6 0% 22989 103107 26785 68%
c i  0.60 30 195 0 0  0 14  26  14 1.7 4 2 1 2 2% 22996 103106 26784 68%
c i  0.60 30 208 0 0  0 8  67  41 1.9 5 2 3 5 6% 23008 103101 26780 68%
c i  0.62 30 132 0 0 61 23 181 144 1.8 6 4 4 7 8% 23011 103100 26777 68%
c i  0.77 32 173 0 0 174 24 896 723 2.3 9 4 3 6 19% 23061 103099 26776 68%
c -  0.81 32 170 0 1 184 24 1000 760 2.2 9 4 3 7 21% 23037 103081 26775 68%
c -  1.18 32 169 0 2 388 33 2001 1534 3.6 18 5 3 8 25% 23069 103081 26775 68%
c i  1.32 32 199 0 2 455 35 2402 1880 3.5 20 6 3 8 25% 23096 103079 26773 68%
c c  1.38 25 217 0 2 455 34 2506 1970 3.4 19 6 3 8 25% 23064 103061 26762 68%
c d  1.38 25 217 0 2 455 34 2506 1966 3.4 19 6 3 8 25% 23069 103050 26762 68%
c
c  seconds   switched   rate       size/glue tier1    binary           remaining
c         MB  reductions conflicts       size  tier2      irredundant
c           level restarts    redundant    glue   trail           variables
c
c u  1.40 25 217 0 2 455 34 2506 1493 3.4 19 6 3 8 25% 23074 103050 26762 68%
c v  1.41 25 217 0 2 455 34 2506 1296 3.4 19 6 3 8 25% 23074 103050 26762 68%
c w  1.43 25 217 0 2 455 34 2506 1294 3.4 19 6 3 8 25% 23074 103050 26762 68%
c x  1.45 26 217 0 2 455 34 2506 1294 3.4 19 6 3 8 25% 23177 102807 26762 68%
c =  1.51 26 217 0 2 455 34 2506 1294 3.4 19 6 3 8 25% 23193 102805 26751 68%
c d  1.52 26 217 0 2 455 34 2506 1292 3.4 19 6 3 8 25% 23180 102801 26750 68%
c f  1.55 26 217 0 2 455 34 2506 1292 3.4 19 6 3 8 25% 23862 101574 27250 70%
c u  1.57 26 217 0 2 455 34 2506 1231 3.4 19 6 3 8 25% 23862 101574 27250 70%
c v  1.58 26 217 0 2 455 34 2506 1174 3.4 19 6 3 8 25% 23862 101574 27250 70%
c w  1.60 26 217 0 2 455 34 2506 1172 3.4 19 6 3 8 25% 23862 101574 27250 70%
c x  1.61 26 217 0 2 455 34 2506 1172 3.4 19 6 3 8 25% 23863 101571 27250 70%
c =  1.67 26 217 0 2 455 34 2506 1172 3.4 19 6 3 8 25% 23987 101570 27186 70%
c d  1.68 26 217 0 2 455 34 2506 1172 3.4 19 6 3 8 25% 23811 101566 27186 70%
c t  1.69 26 217 0 2 455 34 2506 1172 3.4 19 6 3 8 25% 23810 101566 27186 70%
c f  1.71 26 217 0 2 455 34 2506 1172 3.4 19 6 3 8 25% 23995 101271 27294 70%
c -  1.85 26 219 0 3 524 31 3415 1710 3.2 19 6 3 9 25% 24010 101271 27294 70%
c -  2.11 27 244 0 4 703 30 5147 2857 3.5 19 6 3 9 26% 24097 101264 27294 70%
c -  2.41 27 240 0 5 811 29 7147 4046 3.4 18 5 3 8 27% 24189 101264 27294 70%
c c  2.54 27 238 0 5 850 29 7715 4540 3.3 18 5 3 8 28% 24215 101224 27280 70%
c d  2.54 27 238 0 5 850 29 7715 4515 3.3 18 5 3 8 28% 24170 101224 27270 70%
c
c  seconds   switched   rate       size/glue tier1    binary           remaining
c         MB  reductions conflicts       size  tier2      irredundant
c           level restarts    redundant    glue   trail           variables
c
c u  2.58 27 238 0 5 850 29 7715 3477 3.3 18 5 3 8 28% 24183 101224 27270 70%
c v  2.60 29 238 0 5 850 29 7715 3181 3.3 18 5 3 8 28% 24184 101224 27270 70%
c w  2.62 29 238 0 5 850 29 7715 3172 3.3 18 5 3 8 28% 24184 101224 27270 70%
c =  2.71 29 238 0 5 850 29 7715 3172 3.3 18 5 3 8 28% 24514 101222 27104 69%
c d  2.71 29 238 0 5 850 29 7715 3164 3.3 18 5 3 8 28% 24118 101219 27102 69%
c t  2.73 29 238 0 5 850 29 7715 3164 3.3 18 5 3 8 28% 24110 101219 27102 69%
c f  2.76 29 238 0 5 850 29 7715 3164 3.3 18 5 3 8 28% 24991 99857 27578 71%
c u  2.79 29 238 0 5 850 29 7715 2980 3.3 18 5 3 8 28% 24993 99857 27578 71%
c v  2.81 29 238 0 5 850 29 7715 2909 3.3 18 5 3 8 28% 24993 99857 27578 71%
c w  2.83 29 238 0 5 850 29 7715 2901 3.3 18 5 3 8 28% 24993 99857 27578 71%
c x  2.84 29 238 0 5 850 29 7715 2901 3.3 18 5 3 8 28% 25012 99553 27578 71%
c =  2.95 29 238 0 5 850 29 7715 2901 3.3 18 5 3 8 28% 25466 99553 27351 70%
c d  2.95 29 238 0 5 850 29 7715 2886 3.3 18 5 3 8 28% 24957 99553 27351 70%
c t  2.97 29 238 0 5 850 29 7715 2886 3.3 18 5 3 8 28% 24954 99553 27351 70%
c f  3.00 29 238 0 5 850 29 7715 2886 3.3 18 5 3 8 28% 25094 99328 27425 70%
c -  3.33 29 226 0 6 1040 29 9384 3835 3.4 19 5 3 8 28% 25166 99322 27425 70%
c o  3.41 29 239 0 6 1073 27 10282 4575 3.4 18 5 3 8 27% 25233 99317 27425 70%
c -  3.95 29 228 0 7 1337 29 11833 5383 3.6 20 6 3 8 28% 25273 99316 27425 70%
c s  4.08 29 231 0 7 1374 29 12522 5999 3.5 20 6 3 8 29% 25298 98170 27425 70%
c e  4.17 29 231 0 7 1374 29 12522 5999 3.5 20 6 3 8 29% 23503 99780 26417 68%
c
c  seconds   switched    rate        size/glue tier1    binary          remaining
c         MB  reductions   conflicts       size  tier2      irredundant
c           level  restarts     redundant    glue   trail          variables
c
c 2  4.17 29 231 0 7 1374 29 12522 5999 3.5 20 6 3 8 29% 23502 99780 26417 68%
c s  4.17 29 231 0 7 1374 29 12522 5999 3.5 20 6 3 8 29% 23514 99100 26417 68%
c e  4.18 29 231 0 7 1374 29 12522 5999 3.5 20 6 3 8 29% 22910 99510 26221 67%
c ^  4.18 29 231 0 7 1374 29 12522 5999 3.5 20 6 3 8 29% 22910 99510 26221 67%
c -  4.44 29 223 0 8 1475 27 14478 6449 3.4 19 6 3 8 29% 22991 99502 26221 67%
c d  4.74 29 221 0 8 1635 27 15804 7674 3.5 20 6 3 8 29% 22986 99501 26193 67%
c u  4.79 29 221 0 8 1635 27 15804 6142 3.5 20 6 3 8 29% 23003 99501 26193 67%
c v  4.83 29 221 0 8 1635 27 15804 5607 3.5 20 6 3 8 29% 23004 99501 26193 67%
c w  4.87 29 221 0 8 1635 27 15804 5606 3.5 20 6 3 8 29% 23004 99501 26193 67%
c x  4.90 29 221 0 8 1635 27 15804 5602 3.5 20 6 3 8 29% 23032 97323 26193 67%
c =  5.12 29 221 0 8 1635 27 15804 5602 3.5 20 6 3 8 29% 24178 97317 25620 65%
c d  5.13 29 221 0 8 1635 27 15804 5578 3.5 20 6 3 8 29% 22682 97317 25620 65%
c t  5.15 29 221 0 8 1635 27 15804 5578 3.5 20 6 3 8 29% 22676 97317 25620 65%
c f  5.20 29 221 0 8 1635 27 15804 5578 3.5 20 6 3 8 29% 22700 97198 25657 66%
c u  5.30 29 221 0 8 1635 27 15804 5244 3.5 20 6 3 8 29% 22706 97198 25657 66%
c v  5.34 29 221 0 8 1635 27 15804 5106 3.5 20 6 3 8 29% 22706 97198 25657 66%
c w  5.41 29 221 0 8 1635 27 15804 5098 3.5 20 6 3 8 29% 22706 97198 25657 66%
c x  5.45 29 221 0 8 1635 27 15804 5093 3.5 20 6 3 8 29% 22751 96178 25657 66%
c =  5.68 29 221 0 8 1635 27 15804 5093 3.5 20 6 3 8 29% 23377 96178 25344 65%
c d  5.69 29 221 0 8 1635 27 15804 5083 3.5 20 6 3 8 29% 22594 96178 25344 65%
c
c  seconds   switched    rate        size/glue tier1    binary          remaining
c         MB  reductions   conflicts       size  tier2      irredundant
c           level  restarts     redundant    glue   trail          variables
c
c t  5.71 29 221 0 8 1635 27 15804 5083 3.5 20 6 3 8 29% 22590 96178 25344 65%
c f  5.74 29 221 0 8 1635 27 15804 5083 3.5 20 6 3 8 29% 22592 96157 25351 65%
c -  6.08 29 225 0 9 1769 28 17306 5385 3.4 20 6 2 8 29% 22643 96155 25351 65%
c o  6.59 29 220 0 9 1987 27 20299 7992 3.4 20 6 2 8 29% 22745 96154 25351 65%
c -  6.61 29 220 0 10 1988 27 20306 6976 3.5 20 6 2 8 29% 22745 96154 25351 65%
c -  7.23 29 223 0 11 2296 27 23468 8614 3.5 21 6 2 7 29% 22844 96152 25351 65%
c s  7.47 29 227 0 11 2392 27 25040 10054 3.5 21 6 2 7 29% 22887 95663 25351 65%
c e  7.59 29 227 0 11 2392 27 25040 10054 3.5 21 6 2 7 29% 18941 102198 22126 57%
c 2  7.59 29 227 0 11 2392 27 25040 10054 3.5 21 6 2 7 29% 18939 102198 22126 57%
c s  7.62 29 227 0 11 2392 27 25040 10054 3.5 21 6 2 7 29% 19257 100320 22126 57%
c e  7.65 29 227 0 11 2392 27 25040 10054 3.5 21 6 2 7 29% 19140 100491 22062 56%
c ^  7.65 29 227 0 11 2392 27 25040 10054 3.5 21 6 2 7 29% 19140 100491 22062 56%
c -  7.96 29 221 0 12 2501 27 26785 7977 3.4 20 6 2 7 29% 19169 100491 22062 56%
c d  7.99 29 221 0 12 2503 27 26941 8122 3.4 20 6 2 7 29% 19127 100491 22033 56%
c u  8.03 29 221 0 12 2503 27 26941 6862 3.4 20 6 2 7 29% 19141 100491 22033 56%
c v  8.07 29 221 0 12 2503 27 26941 5970 3.4 20 6 2 7 29% 19142 100491 22033 56%
c w  8.08 29 221 0 12 2503 27 26941 5964 3.4 20 6 2 7 29% 19142 100491 22033 56%
c x  8.14 29 221 0 12 2503 27 26941 5946 3.4 20 6 2 7 29% 19161 98657 22033 56%
c =  8.37 29 221 0 12 2503 27 26941 5946 3.4 20 6 2 7 29% 22019 98657 20604 53%
c d  8.37 29 221 0 12 2503 27 26941 5847 3.4 20 6 2 7 29% 19120 98657 20604 53%
c
c  seconds   switched     rate        size/glue tier1    binary          remaining
c         MB   reductions   conflicts       size  tier2      irredundant
c           level   restarts     redundant    glue   trail          variables
c
c t  8.39 29 221 0 12 2503 27 26941 5847 3.4 20 6 2 7 29% 18988 98657 20604 53%
c f  8.47 29 221 0 12 2503 27 26941 5847 3.4 20 6 2 7 29% 19261 97361 20874 53%
c u  8.53 29 221 0 12 2503 27 26941 5490 3.4 20 6 2 7 29% 19264 97361 20874 53%
c v  8.56 29 221 0 12 2503 27 26941 5272 3.4 20 6 2 7 29% 19266 97361 20874 53%
c w  8.57 29 221 0 12 2503 27 26941 5271 3.4 20 6 2 7 29% 19266 97361 20874 53%
c x  8.67 29 221 0 12 2503 27 26941 5265 3.4 20 6 2 7 29% 19282 91130 20874 53%
c =  8.95 29 221 0 12 2503 27 26941 5265 3.4 20 6 2 7 29% 19936 91126 20547 53%
c d  8.96 29 221 0 12 2503 27 26941 5249 3.4 20 6 2 7 29% 19261 91126 20547 53%
c t  8.99 29 221 0 12 2503 27 26941 5249 3.4 20 6 2 7 29% 19234 91126 20547 53%
c f  9.04 29 221 0 12 2503 27 26941 5249 3.4 20 6 2 7 29% 19283 90892 20590 53%
c -  9.41 29 219 0 13 2651 25 30249 7291 3.3 19 6 2 7 29% 19346 90889 20590 53%
c - 10.06 29 211 0 14 2924 25 33854 9306 3.2 19 6 2 7 29% 19428 90888 20590 53%
c - 10.68 29 212 0 15 3228 25 37595 11045 3.2 19 6 2 7 30% 19495 90887 20590 53%
c o 11.05 29 215 0 15 3420 25 40411 13525 3.1 18 6 2 7 30% 19555 90887 20590 53%
c d 11.18 29 216 0 15 3511 25 41271 14240 3.2 18 6 2 7 30% 19517 90887 20559 53%
c u 11.24 29 216 0 15 3511 25 41271 12324 3.2 18 6 2 7 30% 19532 90887 20559 53%
c v 11.29 29 216 0 15 3511 25 41271 11755 3.2 18 6 2 7 30% 19532 90887 20559 53%
c w 11.33 29 216 0 15 3511 25 41271 11755 3.2 18 6 2 7 30% 19532 90887 20559 53%
c x 11.39 29 216 0 15 3511 25 41271 11753 3.2 18 6 2 7 30% 19532 87837 20559 53%
c = 11.58 29 216 0 15 3511 25 41271 11753 3.2 18 6 2 7 30% 19966 87837 20342 52%
c
c  seconds   switched     rate         size/glue tier1    binary          remaining
c         MB   reductions   conflicts        size  tier2      irredundant
c           level   restarts      redundant    glue   trail          variables
c
c d 11.59 29 216 0 15 3511 25 41271 11679 3.2 18 6 2 7 30% 19433 87837 20342 52%
c t 11.61 29 216 0 15 3511 25 41271 11679 3.2 18 6 2 7 30% 19419 87837 20342 52%
c f 11.64 29 216 0 15 3511 25 41271 11679 3.2 18 6 2 7 30% 19441 87734 20362 52%
c c 11.69 29 216 0 15 3511 25 41271 11679 3.2 18 6 2 7 30% 19447 87730 20361 52%
c d 11.70 29 216 0 15 3511 25 41271 11679 3.2 18 6 2 7 30% 19445 87730 20361 52%
c u 11.74 29 216 0 15 3511 25 41271 11257 3.2 18 6 2 7 30% 19448 87730 20361 52%
c v 11.80 29 216 0 15 3511 25 41271 10195 3.2 18 6 2 7 30% 19451 87730 20361 52%
c w 11.84 29 216 0 15 3511 25 41271 10186 3.2 18 6 2 7 30% 19451 87730 20361 52%
c x 11.90 29 216 0 15 3511 25 41271 10178 3.2 18 6 2 7 30% 19452 86192 20361 52%
c = 12.09 29 216 0 15 3511 25 41271 10178 3.2 18 6 2 7 30% 19528 86192 20323 52%
c d 12.09 29 216 0 15 3511 25 41271 10169 3.2 18 6 2 7 30% 19442 86192 20323 52%
c t 12.11 29 216 0 15 3511 25 41271 10169 3.2 18 6 2 7 30% 19441 86192 20323 52%
c f 12.12 29 216 0 15 3511 25 41271 10169 3.2 18 6 2 7 30% 19444 86167 20328 52%
c - 12.17 29 215 0 16 3535 25 41467 9038 3.2 19 6 2 7 29% 19449 86166 20328 52%
c - 12.68 29 215 0 17 3762 24 45468 11101 3.1 18 6 2 6 29% 19533 86164 20328 52%
c - 13.36 29 207 0 18 4173 24 49591 13190 3.1 18 6 2 6 29% 19615 86160 20328 52%
c s 13.59 29 209 0 18 4288 24 52169 15447 3.0 18 6 2 6 29% 19673 85302 20328 52%
c e 13.71 29 209 0 18 4288 24 52169 15447 3.0 18 6 2 6 29% 15094 92925 17805 46%
c 2 13.71 29 209 0 18 4288 24 52169 15447 3.0 18 6 2 6 29% 15079 92925 17805 46%
c s 13.73 29 209 0 18 4288 24 52169 15447 3.0 18 6 2 6 29% 15246 91490 17805 46%
c
c  seconds   switched     rate         size/glue tier1    binary          remaining
c         MB   reductions   conflicts        size  tier2      irredundant
c           level   restarts      redundant    glue   trail          variables
c
c e 13.75 29 209 0 18 4288 24 52169 15447 3.0 18 6 2 6 29% 14834 92047 17666 45%
c ^ 13.75 29 209 0 18 4288 24 52169 15447 3.0 18 6 2 6 29% 14834 92047 17666 45%
c - 14.00 29 207 0 19 4416 23 53833 11626 3.0 18 6 2 6 29% 14851 92047 17666 45%
c - 14.60 29 199 0 20 4745 23 58192 13718 2.9 17 6 2 6 29% 14899 92046 17666 45%
c d 14.74 29 198 0 20 4787 23 58900 14313 2.9 17 6 2 6 29% 14902 92046 17661 45%
c u 14.83 29 198 0 20 4787 23 58900 12015 2.9 17 6 2 6 29% 14913 92046 17661 45%
c v 14.94 29 198 0 20 4787 23 58900 10528 2.9 17 6 2 6 29% 14913 92046 17661 45%
c w 14.97 29 198 0 20 4787 23 58900 10505 2.9 17 6 2 6 29% 14913 92046 17661 45%
c x 15.07 29 198 0 20 4787 23 58900 10499 2.9 17 6 2 6 29% 14920 91541 17661 45%
c = 15.43 29 198 0 20 4787 23 58900 10499 2.9 17 6 2 6 29% 16024 91539 17109 44%
c d 15.44 29 198 0 20 4787 23 58900 10252 2.9 17 6 2 6 29% 14880 91539 17109 44%
c t 15.47 29 198 0 20 4787 23 58900 10252 2.9 17 6 2 6 29% 14752 91539 17109 44%
c f 15.59 29 198 0 20 4787 23 58900 10252 2.9 17 6 2 6 29% 15064 90423 17259 44%
c u 15.64 29 198 0 20 4787 23 58900 9618 2.9 17 6 2 6 29% 15070 90423 17259 44%
c v 15.67 29 198 0 20 4787 23 58900 9226 2.9 17 6 2 6 29% 15071 90423 17259 44%
c w 15.69 29 198 0 20 4787 23 58900 9210 2.9 17 6 2 6 29% 15071 90423 17259 44%
c x 15.79 29 198 0 20 4787 23 58900 9192 2.9 17 6 2 6 29% 15113 86220 17259 44%
c = 15.95 29 198 0 20 4787 23 58900 9192 2.9 17 6 2 6 29% 15395 86220 17118 44%
c d 15.96 29 198 0 20 4787 23 58900 9180 2.9 17 6 2 6 29% 15102 86220 17118 44%
c t 15.98 29 198 0 20 4787 23 58900 9180 2.9 17 6 2 6 29% 15074 86220 17118 44%
c
c  seconds   switched     rate        size/glue tier1    binary          remaining
c         MB   reductions   conflicts       size  tier2      irredundant
c           level   restarts     redundant    glue   trail          variables
c
c f 16.00 29 198 0 20 4787 23 58900 9180 2.9 17 6 2 6 29% 15100 86115 17132 44%
c - 16.60 29 192 0 21 5121 22 62665 11252 2.8 17 6 2 6 29% 15152 86114 17132 44%
c - 17.18 29 186 0 22 5402 22 67248 13610 2.8 17 6 2 6 29% 15211 86111 17132 44%
c o 17.52 29 183 0 22 5527 21 70549 16416 2.8 16 6 2 6 29% 15254 86111 17132 44%
c - 17.71 29 182 0 23 5644 21 71938 15420 2.7 16 6 2 6 29% 15269 86111 17132 44%
c - 18.19 29 180 0 24 5973 21 76734 17107 2.7 16 6 2 6 28% 15329 86108 17132 44%
c d 18.66 29 176 0 24 6225 21 79951 19932 2.7 16 6 2 6 28% 15352 86108 17119 44%
c u 18.74 29 176 0 24 6225 21 79951 17141 2.7 16 6 2 6 28% 15370 86108 17119 44%
c v 18.79 29 176 0 24 6225 21 79951 16408 2.7 16 6 2 6 28% 15370 86108 17119 44%
c w 18.83 29 176 0 24 6225 21 79951 16408 2.7 16 6 2 6 28% 15370 86108 17119 44%
c x 18.91 29 176 0 24 6225 21 79951 16399 2.7 16 6 2 6 28% 15387 84333 17119 44%
c = 19.19 29 176 0 24 6225 21 79951 16399 2.7 16 6 2 6 28% 15859 84331 16883 43%
c d 19.20 29 176 0 24 6225 21 79951 16183 2.7 16 6 2 6 28% 15347 84331 16883 43%
c t 19.22 29 176 0 24 6225 21 79951 16183 2.7 16 6 2 6 28% 15290 84331 16883 43%
c f 19.24 29 176 0 24 6225 21 79951 16183 2.7 16 6 2 6 28% 15316 84231 16897 43%
c u 19.30 29 176 0 24 6225 21 79951 15335 2.7 16 6 2 6 28% 15328 84231 16897 43%
c v 19.37 29 176 0 24 6225 21 79951 13847 2.7 16 6 2 6 28% 15329 84231 16897 43%
c w 19.41 29 176 0 24 6225 21 79951 13847 2.7 16 6 2 6 28% 15329 84231 16897 43%
c x 19.47 29 176 0 24 6225 21 79951 13840 2.7 16 6 2 6 28% 15359 82691 16897 43%
c = 19.76 29 176 0 24 6225 21 79951 13840 2.7 16 6 2 6 28% 15801 82673 16674 43%
c
c  seconds   switched     rate         size/glue tier1    binary          remaining
c         MB   reductions   conflicts        size  tier2      irredundant
c           level   restarts      redundant    glue   trail          variables
c
c d 19.76 29 176 0 24 6225 21 79951 13729 2.7 16 6 2 6 28% 15345 82672 16674 43%
c t 19.78 29 176 0 24 6225 21 79951 13729 2.7 16 6 2 6 28% 15318 82672 16674 43%
c f 19.80 29 176 0 24 6225 21 79951 13729 2.7 16 6 2 6 28% 15340 82572 16688 43%
c - 20.02 29 176 0 25 6345 21 81632 13468 2.7 16 6 2 6 28% 15352 82572 16688 43%
c - 20.66 29 173 0 26 6770 20 86633 15943 2.6 15 6 2 6 28% 15400 82571 16688 43%
c - 21.38 29 171 0 27 7214 20 91732 18208 2.6 15 6 2 6 28% 15468 82571 16688 43%
c s 22.08 29 171 0 27 7699 21 95825 21862 2.6 15 6 2 6 28% 15540 81361 16688 43%
c e 22.21 29 171 0 27 7699 21 95825 21862 2.6 15 6 2 6 28% 11011 93563 14025 36%
c 2 22.21 29 171 0 27 7699 21 95825 21862 2.6 15 6 2 6 28% 11006 93563 14025 36%
c s 22.24 29 171 0 27 7699 21 95825 21862 2.6 15 6 2 6 28% 11079 91842 14025 36%
c e 22.27 29 171 0 27 7699 21 95825 21862 2.6 15 6 2 6 28% 10913 92203 13949 36%
c ^ 22.27 29 171 0 27 7699 21 95825 21862 2.6 15 6 2 6 28% 10913 92203 13949 36%
c - 22.36 29 171 0 28 7756 20 96929 14279 2.6 15 6 2 6 28% 10922 92203 13949 36%
c - 23.02 29 167 0 29 8236 20 102220 16960 2.5 15 6 2 6 28% 10961 92203 13949 36%
c c 23.34 29 165 0 29 8432 20 104553 19097 2.5 15 6 2 6 28% 11003 92120 13933 36%
c d 23.35 29 165 0 29 8432 20 104553 19050 2.5 15 6 2 6 28% 10971 92120 13933 36%
c u 23.42 29 165 0 29 8432 20 104553 16075 2.5 15 6 2 6 28% 10991 92120 13933 36%
c v 23.49 29 165 0 29 8432 20 104553 13970 2.5 15 6 2 6 28% 10993 92120 13933 36%
c w 23.54 29 165 0 29 8432 20 104553 13913 2.5 15 6 2 6 28% 10993 92120 13933 36%
c x 23.61 29 165 0 29 8432 20 104553 13911 2.5 15 6 2 6 28% 10999 91709 13933 36%
c
c  seconds   switched     rate          size/glue tier1    binary          remaining
c         MB   reductions   conflicts         size  tier2      irredundant
c           level   restarts       redundant    glue   trail          variables
c
c = 23.98 29 165 0 29 8432 20 104553 13911 2.5 15 6 2 6 28% 11557 91687 13651 35%
c d 23.98 29 165 0 29 8432 20 104553 13704 2.5 15 6 2 6 28% 10968 91687 13651 35%
c t 24.00 29 165 0 29 8432 20 104553 13704 2.5 15 6 2 6 28% 10907 91687 13651 35%
c f 24.11 29 165 0 29 8432 20 104553 13704 2.5 15 6 2 6 28% 10892 91406 13679 35%
c u 24.17 29 165 0 29 8432 20 104553 12909 2.5 15 6 2 6 28% 10897 91406 13679 35%
c v 24.22 29 165 0 29 8432 20 104553 12456 2.5 15 6 2 6 28% 10897 91406 13679 35%
c w 24.27 29 165 0 29 8432 20 104553 12362 2.5 15 6 2 6 28% 10897 91406 13679 35%
c x 24.37 29 165 0 29 8432 20 104553 12343 2.5 15 6 2 6 28% 10903 89177 13679 35%
c = 24.74 29 165 0 29 8432 20 104553 12343 2.5 15 6 2 6 28% 11137 89051 13547 35%
c d 24.74 29 165 0 29 8432 20 104553 12221 2.5 15 6 2 6 28% 10914 89042 13547 35%
c d 24.75 29 165 0 29 8432 20 104553 12221 2.5 15 6 2 6 28% 10910 89042 13545 35%
c t 24.76 29 165 0 29 8432 20 104553 12221 2.5 15 6 2 6 28% 10896 89042 13545 35%
c - 25.27 29 162 0 30 8674 20 107605 13298 2.5 15 6 2 6 28% 10901 89041 13545 35%
c o 25.53 29 160 0 30 8827 20 110598 15674 2.5 15 6 2 6 28% 10944 89040 13545 35%
c - 25.89 29 159 0 31 9101 20 113082 15961 2.5 15 6 2 6 28% 10960 89039 13545 35%
c - 26.65 29 156 0 32 9653 20 118649 18485 2.4 15 6 2 6 28% 10996 89034 13545 35%
c i 27.05 29 155 0 32 9964 20 120518 20236 2.4 15 6 2 6 29% 11003 89034 13544 35%
c - 27.46 29 153 0 33 10224 20 124306 20434 2.4 15 6 2 6 28% 11029 89033 13544 35%
c i 28.22 30 152 0 33 10673 20 128306 24143 2.4 15 6 2 6 29% 11047 89033 13542 35%
c - 28.54 30 151 0 34 10867 20 130050 22341 2.4 15 6 2 6 29% 11053 89033 13542 35%
c
c  seconds   switched      rate          size/glue tier1    binary          remaining
c         MB   reductions    conflicts         size  tier2      irredundant
c           level   restarts        redundant    glue   trail          variables
c
c d 29.07 30 150 0 34 11211 20 132779 24698 2.4 15 6 2 6 29% 11028 89006 13519 35%
c d 29.08 30 150 0 34 11211 20 132779 24693 2.4 15 6 2 6 29% 11022 89006 13516 35%
c u 29.18 30 150 0 34 11211 20 132779 21065 2.4 15 6 2 6 29% 11039 89006 13516 35%
c v 29.26 30 150 0 34 11211 20 132779 19909 2.4 15 6 2 6 29% 11039 89006 13516 35%
c w 29.32 30 150 0 34 11211 20 132779 19906 2.4 15 6 2 6 29% 11039 89006 13516 35%
c x 29.46 30 150 0 34 11211 20 132779 19875 2.4 15 6 2 6 29% 11048 85285 13516 35%
c = 29.91 30 150 0 34 11211 20 132779 19875 2.4 15 6 2 6 29% 11240 85285 13420 34%
c d 29.92 30 150 0 34 11211 20 132779 19678 2.4 15 6 2 6 29% 11024 85285 13420 34%
c t 29.93 30 150 0 34 11211 20 132779 19678 2.4 15 6 2 6 29% 10988 85285 13420 34%
c f 29.95 30 150 0 34 11211 20 132779 19678 2.4 15 6 2 6 29% 10992 85262 13422 34%
c u 30.07 30 150 0 34 11211 20 132779 18724 2.4 15 6 2 6 29% 11000 85262 13422 34%
c v 30.16 30 150 0 34 11211 20 132779 16961 2.4 15 6 2 6 29% 11001 85262 13422 34%
c w 30.22 30 150 0 34 11211 20 132779 16891 2.4 15 6 2 6 29% 11001 85262 13422 34%
c x 30.32 30 150 0 34 11211 20 132779 16879 2.4 15 6 2 6 29% 11014 83404 13422 34%
c = 30.77 30 150 0 34 11211 20 132779 16879 2.4 15 6 2 6 29% 11088 83404 13385 34%
c d 30.77 30 150 0 34 11211 20 132779 16875 2.4 15 6 2 6 29% 11013 83404 13385 34%
c t 30.79 30 150 0 34 11211 20 132779 16875 2.4 15 6 2 6 29% 11008 83404 13385 34%
c i 30.85 30 150 0 34 11225 20 133172 17213 2.4 15 6 2 6 29% 11011 83404 13384 34%
c - 31.16 30 149 0 35 11393 20 135880 17338 2.4 15 6 2 6 29% 11015 83402 13384 34%
c i 31.38 30 148 0 35 11607 20 137182 18560 2.4 15 6 2 6 29% 11020 83402 13383 34%
c
c  seconds   switched      rate          size/glue tier1    binary          remaining
c         MB   reductions    conflicts         size  tier2      irredundant
c           level   restarts        redundant    glue   trail          variables
c
c i 31.53 30 148 0 35 11713 20 138382 19649 2.4 15 6 2 6 29% 11024 83402 13382 34%
c i 31.79 30 147 0 35 11849 19 141217 22213 2.4 15 6 2 6 29% 11046 83402 13381 34%
c - 31.88 30 147 0 36 11883 19 141796 20049 2.4 15 6 2 6 29% 11041 83402 13381 34%
c i 31.99 30 146 0 36 11948 19 143674 21537 2.4 15 6 2 6 29% 11054 83402 13380 34%
c i 32.22 30 145 0 36 12089 19 145567 23264 2.3 15 6 2 6 29% 11070 83401 13379 34%
c i 32.30 30 145 0 36 12154 19 146135 23780 2.3 15 6 2 6 29% 11075 83401 13378 34%
c - 32.42 30 145 0 37 12225 19 147797 22129 2.3 14 6 2 6 29% 11078 83401 13378 34%
c i 32.48 30 144 0 37 12263 19 148578 22794 2.3 14 6 2 6 29% 11087 83400 13377 34%
c - 33.15 30 141 0 38 12761 19 153879 23757 2.3 14 6 2 6 28% 11123 83400 13377 34%
c i 33.47 30 139 0 38 13035 18 157412 26777 2.3 14 6 2 6 28% 11179 83400 13376 34%
c s 33.55 30 139 0 38 13089 18 157851 27173 2.3 15 6 2 6 28% 11186 82903 13376 34%
c e 33.69 30 139 0 38 13089 18 157851 27173 2.3 15 6 2 6 28% 7558 98923 11171 29%
c 2 33.69 30 139 0 38 13089 18 157851 27173 2.3 15 6 2 6 28% 7553 98923 11171 29%
c s 33.73 30 139 0 38 13089 18 157851 27173 2.3 15 6 2 6 28% 7583 96622 11171 29%
c e 33.77 30 139 0 38 13089 18 157851 27173 2.3 15 6 2 6 28% 7427 97157 11094 28%
c ^ 33.77 30 139 0 38 13089 18 157851 27173 2.3 15 6 2 6 28% 7427 97157 11094 28%
c - 34.03 30 137 0 39 13288 18 160044 16632 2.3 15 6 2 5 28% 7438 97157 11094 28%
c o 34.11 30 137 0 39 13358 18 160601 17158 2.3 14 6 2 5 28% 7438 97157 11094 28%
c i 34.27 30 136 0 39 13481 18 162216 18605 2.3 14 6 2 5 28% 7451 97157 11093 28%
c i 34.43 30 135 0 39 13650 18 164248 20376 2.3 14 6 2 5 28% 7467 97157 11091 28%
c
c  seconds   switched      rate          size/glue tier1    binary         remaining
c         MB   reductions    conflicts         size  tier2     irredundant
c           level   restarts        redundant    glue   trail         variables
c
c d 34.49 30 135 0 39 13708 18 164733 20714 2.3 14 6 2 5 28% 7465 97126 11087 28%
c d 34.50 30 135 0 39 13708 18 164733 20710 2.3 14 6 2 5 28% 7461 97126 11085 28%
c u 34.58 30 135 0 39 13708 18 164733 17808 2.3 14 6 2 5 28% 7472 97126 11085 28%
c v 34.64 30 135 0 39 13708 18 164733 16006 2.3 14 6 2 5 28% 7473 97126 11085 28%
c w 34.69 30 135 0 39 13708 18 164733 15975 2.3 14 6 2 5 28% 7473 97126 11085 28%
c x 34.77 30 135 0 39 13708 18 164733 15975 2.3 14 6 2 5 28% 7473 97071 11085 28%
c = 35.21 30 135 0 39 13708 18 164733 15975 2.3 14 6 2 5 28% 7565 96959 11030 28%
c d 35.21 30 135 0 39 13708 18 164733 15769 2.3 14 6 2 5 28% 7454 96957 11030 28%
c t 35.23 30 135 0 39 13708 18 164733 15769 2.3 14 6 2 5 28% 7351 96957 11030 28%
c f 35.34 30 135 0 39 13708 18 164733 15769 2.3 14 6 2 5 28% 7360 96426 11055 28%
c u 35.40 30 135 0 39 13708 18 164733 15277 2.3 14 6 2 5 28% 7364 96426 11055 28%
c v 35.45 30 135 0 39 13708 18 164733 14902 2.3 14 6 2 5 28% 7364 96426 11055 28%
c w 35.57 30 135 0 39 13708 18 164733 14473 2.3 14 6 2 5 28% 7364 96426 11055 28%
c = 35.97 30 135 0 39 13708 18 164733 14473 2.3 14 6 2 5 28% 7370 96426 11052 28%
c d 35.98 30 135 0 39 13708 18 164733 14472 2.3 14 6 2 5 28% 7363 96426 11052 28%
c - 36.14 30 134 0 40 13779 18 166288 13930 2.3 14 6 2 6 28% 7365 96426 11052 28%
c - 36.38 30 129 0 41 14235 17 172614 16946 2.3 14 6 2 6 26% 7404 96425 11052 28%
c i 36.57 30 126 0 41 14624 17 176530 20418 2.2 14 6 2 6 26% 7420 96425 11051 28%
c i 36.58 30 126 0 41 14627 17 176594 20447 2.2 14 6 2 6 26% 7429 96425 11050 28%
c i 36.60 30 125 0 41 14657 17 176976 20763 2.2 14 6 2 6 26% 7433 96425 11047 28%
c
c  seconds   switched      rate          size/glue tier1    binary         remaining
c         MB   reductions    conflicts         size  tier2     irredundant
c           level   restarts        redundant    glue   trail         variables
c
c i 36.60 30 125 0 41 14663 17 177054 20833 2.2 14 6 2 6 26% 7436 96425 11045 28%
c i 36.61 30 125 0 41 14682 17 177452 21149 2.2 14 6 2 6 26% 7443 96425 11044 28%
c i 36.61 30 125 0 41 14682 17 177659 21293 2.2 14 6 2 6 25% 7450 96425 11043 28%
c i 36.61 30 124 0 41 14682 17 177777 21371 2.2 14 6 2 6 25% 7458 96425 11040 28%
c i 36.61 30 124 0 41 14682 17 177793 21376 2.2 14 6 2 6 25% 7462 96425 11039 28%
c i 36.61 30 124 0 41 14682 17 177794 21376 2.2 14 6 2 6 25% 7462 96425 11037 28%
c i 36.61 30 124 0 41 14682 17 177801 21377 2.2 14 6 2 6 25% 7464 96425 11034 28%
c i 36.62 30 125 0 41 14685 17 177832 21404 2.2 14 6 2 6 25% 7466 96425 11033 28%
c } 36.62 30 124 0 41 14685 17 177835 21404 2.2 14 6 2 6 25% 7467 96425 11031 28%
c 0 36.62 30 124 0 41 14685 17 177835 21404 2.2 14 6 2 6 25% 7467 96425 11031 28%
c
c ---- [ result ] ------------------------------------------------------------
c
s UNSATISFIABLE
c
c ---- [ profiling ] ---------------------------------------------------------
c
c          23.88   65.21 %  search
c          23.88   65.21 %  focused
c          12.14   33.16 %  simplify
c          11.51   31.44 %  probe
c           5.27   14.40 %  sweep
c           3.94   10.76 %  vivify
c           1.06    2.90 %  factor
c           0.96    2.63 %  eliminate
c           0.60    1.63 %  substitute
c           0.51    1.39 %  preprocess
c           0.40    1.10 %  congruence
c           0.21    0.58 %  reduce
c           0.21    0.58 %  subsume
c           0.17    0.46 %  fastel
c           0.16    0.44 %  transitive
c           0.08    0.21 %  backbone
c           0.05    0.14 %  lucky
c           0.04    0.10 %  parse
c =============================================
c          36.62  100.00 %  total
c
c ---- [ statistics ] --------------------------------------------------------
c
c chronological:                         4571                3 %  conflicts
c conflicts:                           177835             4856.29 per second
c congruent:                             4465               11 %  variables
c decisions:                          3180085               17.88 per conflict
c eliminated:                           20958               54 %  variables
c factored:                              2774                7 %  variables
c fast_eliminated:                       8782               42 %  eliminated
c fast_strengthened:                       66                1 %  per strengthened
c fast_subsumed:                           20                0 %  per subsumed
c iterations:                              30                0 %  variables
c propagations:                     168876411          4611655    per second
c reductions:                              41             4337    interval
c reordered:                                6            29639    interval
c restarts:                             14685               12    interval
c strengthened:                          8312                0 %  checks
c substituted:                           9807               25 %  variables
c subsumed:                             11550                0 %  checks
c switched:                                 0                0    interval
c vivified:                             97631               16 %  checks
c
c ---- [ glue usage ] --------------------------------------------------------
c
c focused glue 2 used 90731 clauses 25.74% accumulated 67.90% tier1
c focused glue 3 used 44800 clauses 12.71% accumulated 80.61%
c focused glue 4 used 20669 clauses  5.86% accumulated 86.48%
c focused glue 5 used 12542 clauses  3.56% accumulated 90.04% tier2
c
c ---- [ resources ] ---------------------------------------------------------
c
c maximum-resident-set-size:         33767424 bytes         32 MB
c process-time:                            37s              36.62 seconds
c
c ---- [ shutting down ] -----------------------------------------------------
c
c exit 20
